Problem:    cloudv3
Rows:       6
Columns:    2
Non-zeros:  10
Status:     OPTIMAL
Objective:  z = 2261.312 (MAXimum)

   No.   Row name   St   Activity     Lower bound   Upper bound    Marginal
------ ------------ -- ------------- ------------- ------------- -------------
     1 Minimo[1]    NU          1560                        1560             1 
     2 Minimo[2]    B        1209.34                        1280 
     3 Minimo[3]    B        551.864                         552 
     4 Minimo[4]    B       -1245.25                          -0 
     5 z            B        2261.31                             
     6 Parametric   NU          5479                        5479         0.128 

   No. Column name  St   Activity     Lower bound   Upper bound    Marginal
------ ------------ -- ------------- ------------- ------------- -------------
     1 costo        B        2261.31                             
     2 q            B           5479                             

Karush-Kuhn-Tucker optimality conditions:

KKT.PE: max.abs.err = 0.00e+000 on row 0
        max.rel.err = 0.00e+000 on row 0
        High quality

KKT.PB: max.abs.err = 0.00e+000 on row 0
        max.rel.err = 0.00e+000 on row 0
        High quality

KKT.DE: max.abs.err = 0.00e+000 on column 0
        max.rel.err = 0.00e+000 on column 0
        High quality

KKT.DB: max.abs.err = 0.00e+000 on row 0
        max.rel.err = 0.00e+000 on row 0
        High quality

End of output
